data;

set J := 1 2 3 4 5 6 7 8 9 10;
set I := 1 2 3 4 5 6 7 8 9;

param p := 
    1 133
    2 84
    3 48
    4 29
    5 152
    6 93
    7 78
    8 7
    9 66
    10 52;

param r := 
    1 39
    2 88
    3 32
    4 26
    5 122
    6 135
    7 87
    8 82
    9 151
    10 136;

param T := 153;
param R := 151;
param M := 1000000;

end;